
Gurobi 9.0.1 (linux64) logging started Thu Apr 30 23:39:29 2020

Gurobi Optimizer version 9.0.1 build v9.0.1rc0 (linux64)
Optimize a model with 518 rows, 416 columns and 1840 nonzeros
Model fingerprint: 0xa513e3ce
Variable types: 0 continuous, 416 integer (392 binary)
Coefficient statistics:
  Matrix range     [1e+00, 6e+00]
  Objective range  [1e+01, 9e+01]
  Bounds range     [1e+00, 1e+00]
  RHS range        [1e+00, 7e+00]

User MIP start produced solution with objective 501 (0.00s)
Loaded user MIP start with objective 501

Presolve removed 94 rows and 94 columns
Presolve time: 0.01s
Presolved: 424 rows, 322 columns, 1560 nonzeros
Variable types: 0 continuous, 322 integer (302 binary)

Root relaxation: objective 4.093333e+02, 329 iterations, 0.01 seconds

    Nodes    |    Current Node    |     Objective Bounds      |     Work
 Expl Unexpl |  Obj  Depth IntInf | Incumbent    BestBd   Gap | It/Node Time

     0     0  409.33333    0   16  501.00000  409.33333  18.3%     -    0s
     0     0  430.60000    0   50  501.00000  430.60000  14.1%     -    0s
     0     0  430.85714    0   55  501.00000  430.85714  14.0%     -    0s
     0     0  455.00000    0   86  501.00000  455.00000  9.18%     -    0s
     0     0  458.00000    0   85  501.00000  458.00000  8.58%     -    0s
     0     0  458.00000    0   86  501.00000  458.00000  8.58%     -    0s
     0     0  463.82353    0  103  501.00000  463.82353  7.42%     -    0s
     0     0  463.82353    0  101  501.00000  463.82353  7.42%     -    0s
     0     0  466.00000    0   90  501.00000  466.00000  6.99%     -    0s
     0     0  466.00000    0   90  501.00000  466.00000  6.99%     -    0s
     0     0  466.00000    0   66  501.00000  466.00000  6.99%     -    0s
     0     0  466.00000    0   61  501.00000  466.00000  6.99%     -    0s
     0     0  466.00000    0   66  501.00000  466.00000  6.99%     -    0s
     0     0  466.00000    0   67  501.00000  466.00000  6.99%     -    0s
     0     0  466.00000    0   41  501.00000  466.00000  6.99%     -    0s
     0     0  466.00000    0   44  501.00000  466.00000  6.99%     -    0s
     0     0  466.00000    0   45  501.00000  466.00000  6.99%     -    0s
     0     0  466.00000    0   45  501.00000  466.00000  6.99%     -    0s
     0     0  466.00000    0   74  501.00000  466.00000  6.99%     -    0s
     0     0  466.00000    0   61  501.00000  466.00000  6.99%     -    0s
     0     0  466.00000    0   16  501.00000  466.00000  6.99%     -    0s
     0     0  466.00000    0   55  501.00000  466.00000  6.99%     -    0s
     0     0  466.00000    0   58  501.00000  466.00000  6.99%     -    0s
     0     0  466.00000    0   57  501.00000  466.00000  6.99%     -    0s
     0     0  466.00000    0   58  501.00000  466.00000  6.99%     -    0s
     0     0  466.00000    0   56  501.00000  466.00000  6.99%     -    0s
     0     0  466.00000    0   57  501.00000  466.00000  6.99%     -    0s
     0     0  466.00000    0   53  501.00000  466.00000  6.99%     -    0s
     0     0  466.00000    0   52  501.00000  466.00000  6.99%     -    0s
     0     0  466.00000    0   59  501.00000  466.00000  6.99%     -    0s
     0     0  466.00000    0   59  501.00000  466.00000  6.99%     -    0s
     0     2  466.00000    0   59  501.00000  466.00000  6.99%     -    0s

Cutting planes:
  Learned: 5
  Gomory: 1
  Cover: 26
  Implied bound: 71
  MIR: 11
  StrongCG: 4
  Inf proof: 2
  Zero half: 3
  Mod-K: 3
  RLT: 11
  Relax-and-lift: 20

Explored 872 nodes (18781 simplex iterations) in 1.86 seconds
Thread count was 1 (of 40 available processors)

Solution count 1: 501 

Optimal solution found (tolerance 1.00e-04)
Best objective 5.010000000000e+02, best bound 5.010000000000e+02, gap 0.0000%

User-callback calls 2621, time in user-callback 0.01 sec
